c uprop, v00.0, 
c reading from data/prog865.c.cnf
c done reading: 0.003127
p cnf 164 770
-75 -89 0
75 89 0
-65 -83 0
65 83 0
-77 -79 0
77 79 0
-70 -73 0
70 73 0
-68 -81 0
68 81 0
-63 -71 0
63 71 0
-86 -92 0
86 92 0
89 -93 0
-89 93 0
-89 -94 0
89 94 0
-83 -89 95 0
-83 -93 95 0
-89 -93 95 0
83 89 -95 0
83 93 -95 0
89 93 -95 0
83 -95 -96 0
89 -95 -96 0
93 -95 -96 0
-83 95 96 0
-89 95 96 0
-93 95 96 0
-83 -89 -93 96 0
83 89 93 -96 0
-79 -83 97 0
-79 -95 97 0
-83 -95 97 0
79 83 -97 0
79 95 -97 0
83 95 -97 0
79 -97 -98 0
83 -97 -98 0
95 -97 -98 0
-79 97 98 0
-83 97 98 0
-95 97 98 0
-79 -83 -95 98 0
79 83 95 -98 0
-73 -79 99 0
-73 -97 99 0
-79 -97 99 0
73 79 -99 0
73 97 -99 0
79 97 -99 0
73 -99 -100 0
79 -99 -100 0
97 -99 -100 0
-73 99 100 0
-79 99 100 0
-97 99 100 0
-73 -79 -97 100 0
73 79 97 -100 0
-68 -73 101 0
-68 -99 101 0
-73 -99 101 0
68 73 -101 0
68 99 -101 0
73 99 -101 0
68 -101 -102 0
73 -101 -102 0
99 -101 -102 0
-68 101 102 0
-73 101 102 0
-99 101 102 0
-68 -73 -99 102 0
68 73 99 -102 0
-63 -68 103 0
-63 -101 103 0
-68 -101 103 0
63 68 -103 0
63 101 -103 0
68 101 -103 0
63 -103 -104 0
68 -103 -104 0
101 -103 -104 0
-63 103 104 0
-68 103 104 0
-101 103 104 0
-63 -68 -101 104 0
63 68 101 -104 0
-63 -86 105 0
-86 -103 105 0
-63 -103 105 0
63 86 -105 0
86 103 -105 0
63 103 -105 0
86 -91 -105 0
63 -91 -105 0
-91 103 -105 0
-86 91 105 0
-63 91 105 0
91 -103 105 0
-63 -86 91 -103 0
63 86 -91 103 0
86 -88 0
-88 105 0
-86 88 -105 0
-82 -86 -105 0
-82 86 105 0
82 -86 105 0
82 86 -105 0
-78 98 0
78 -98 0
-72 -98 0
72 98 0
67 -89 -100 0
67 -78 -100 0
67 -78 -89 0
-67 89 100 0
-67 78 100 0
-67 78 89 0
-62 -67 100 0
-62 -67 89 0
-62 -67 78 0
62 67 -100 0
62 67 -89 0
62 67 -78 0
62 -78 -89 -100 0
-62 78 89 100 0
-83 85 -102 0
-67 85 -102 0
-67 -83 85 0
83 -85 102 0
67 -85 102 0
67 83 -85 0
-61 -85 102 0
-61 83 -85 0
-61 67 -85 0
61 85 -102 0
61 -83 85 0
61 -67 85 0
61 -67 -83 -102 0
-61 67 83 102 0
60 -79 -104 0
60 -85 -104 0
60 -79 -85 0
-60 79 104 0
-60 85 104 0
-60 79 85 0
-59 -60 104 0
-59 -60 79 0
-59 -60 85 0
59 60 -104 0
59 60 -79 0
59 60 -85 0
59 -79 -85 -104 0
-59 79 85 104 0
58 -73 -91 0
58 -60 -91 0
58 -60 -73 0
-58 73 91 0
-58 60 91 0
-58 60 73 0
-57 -58 91 0
-57 -58 73 0
-57 -58 60 0
57 58 -91 0
57 58 -73 0
57 58 -60 0
57 -60 -73 -91 0
-57 60 73 91 0
56 -68 -82 0
56 -58 -82 0
56 -58 -68 0
-56 68 82 0
-56 58 82 0
-56 58 68 0
-55 -56 82 0
-55 -56 68 0
-55 -56 58 0
55 56 -82 0
55 56 -68 0
55 56 -58 0
55 -58 -68 -82 0
-55 58 68 82 0
54 -63 -88 0
54 -56 -88 0
54 -56 -63 0
-54 63 88 0
-54 56 88 0
-54 56 63 0
-53 -54 88 0
-53 -54 63 0
-53 -54 56 0
53 54 -88 0
53 54 -63 0
53 54 -56 0
53 -56 -63 -88 0
-53 56 63 88 0
-52 86 0
-52 54 0
52 -54 -86 0
-51 -54 -86 0
-51 54 86 0
51 54 -86 0
51 -54 86 0
-50 62 0
50 -62 0
-49 -62 0
49 62 0
48 -61 -89 0
48 -50 -61 0
48 -50 -89 0
-48 61 89 0
-48 50 61 0
-48 50 89 0
-47 -48 61 0
-47 -48 89 0
-47 -48 50 0
47 48 -61 0
47 48 -89 0
47 48 -50 0
47 -50 -61 -89 0
-47 50 61 89 0
46 -59 -83 0
46 -48 -59 0
46 -48 -83 0
-46 59 83 0
-46 48 59 0
-46 48 83 0
-45 -46 59 0
-45 -46 83 0
-45 -46 48 0
45 46 -59 0
45 46 -83 0
45 46 -48 0
45 -48 -59 -83 0
-45 48 59 83 0
44 -57 -79 0
44 -46 -57 0
44 -46 -79 0
-44 57 79 0
-44 46 57 0
-44 46 79 0
-43 -44 57 0
-43 -44 79 0
-43 -44 46 0
43 44 -57 0
43 44 -79 0
43 44 -46 0
43 -46 -57 -79 0
-43 46 57 79 0
42 -55 -73 0
42 -44 -55 0
42 -44 -73 0
-42 55 73 0
-42 44 55 0
-42 44 73 0
-41 -42 55 0
-41 -42 73 0
-41 -42 44 0
41 42 -55 0
41 42 -73 0
41 42 -44 0
41 -44 -55 -73 0
-41 44 55 73 0
40 -53 -68 0
40 -42 -53 0
40 -42 -68 0
-40 53 68 0
-40 42 53 0
-40 42 68 0
-39 -40 53 0
-39 -40 68 0
-39 -40 42 0
39 40 -53 0
39 40 -68 0
39 40 -42 0
39 -42 -53 -68 0
-39 42 53 68 0
38 -51 -63 0
38 -40 -51 0
38 -40 -63 0
-38 51 63 0
-38 40 51 0
-38 40 63 0
-38 51 -106 0
-38 63 -106 0
-38 40 -106 0
38 -51 106 0
38 -63 106 0
38 -40 106 0
-40 -51 -63 106 0
40 51 63 -106 0
-52 -86 107 0
-38 -52 107 0
-38 -86 107 0
52 86 -107 0
38 52 -107 0
38 86 -107 0
52 -107 -108 0
86 -107 -108 0
38 -107 -108 0
-52 107 108 0
-86 107 108 0
-38 107 108 0
-38 -52 -86 108 0
38 52 86 -108 0
-94 -109 0
94 109 0
-96 -110 0
96 110 0
-72 -111 0
72 111 0
-49 -112 0
49 112 0
-47 -113 0
47 113 0
-45 -114 0
45 114 0
-43 -115 0
43 115 0
-41 -116 0
41 116 0
-39 -117 0
39 117 0
-106 -118 0
106 118 0
-108 -119 0
108 119 0
-107 -120 0
107 120 0
-121 -123 0
-123 -124 0
121 123 124 0
121 124 -126 0
-121 -124 -126 0
-121 124 126 0
121 -124 126 0
123 -127 0
-127 -128 0
-123 127 128 0
-123 128 -130 0
123 -128 -130 0
123 128 130 0
-123 -128 130 0
127 -131 0
-131 -132 0
-127 131 132 0
-127 132 -134 0
127 -132 -134 0
127 132 134 0
-127 -132 134 0
131 -135 0
-135 -136 0
-131 135 136 0
-131 136 -138 0
131 -136 -138 0
131 136 138 0
-131 -136 138 0
135 -139 0
-139 -140 0
-135 139 140 0
-135 140 -142 0
135 -140 -142 0
135 140 142 0
-135 -140 142 0
-90 139 0
-90 -143 0
90 -139 143 0
-84 -139 143 0
-84 139 -143 0
84 139 143 0
84 -139 -143 0
-80 90 0
-80 -145 0
80 -90 145 0
-74 -90 145 0
-74 90 -145 0
74 90 145 0
74 -90 -145 0
-69 128 0
-69 121 0
69 -121 -128 0
-64 -121 -128 0
-64 121 128 0
64 121 -128 0
64 -121 128 0
87 -124 -132 0
-69 87 -132 0
-69 87 -124 0
-87 124 132 0
69 -87 132 0
69 -87 124 0
-87 -122 132 0
-87 -122 124 0
69 -87 -122 0
87 122 -132 0
87 122 -124 0
-69 87 122 0
-69 122 -124 -132 0
69 -122 124 132 0
125 -128 -136 0
-87 125 -136 0
-87 125 -128 0
-125 128 136 0
87 -125 136 0
87 -125 128 0
-125 -129 136 0
-125 128 -129 0
87 -125 -129 0
125 129 -136 0
125 -128 129 0
-87 125 129 0
-87 -128 129 -136 0
87 128 -129 136 0
-132 133 -140 0
-125 133 -140 0
-125 -132 133 0
132 -133 140 0
125 -133 140 0
125 132 -133 0
-133 -137 140 0
132 -133 -137 0
125 -133 -137 0
133 137 -140 0
-132 133 137 0
-125 133 137 0
-125 -132 137 -140 0
125 132 -137 140 0
-136 141 -143 0
-133 141 -143 0
-133 -136 141 0
136 -141 143 0
133 -141 143 0
133 136 -141 0
-141 143 -144 0
136 -141 -144 0
133 -141 -144 0
141 -143 144 0
-136 141 144 0
-133 141 144 0
-133 -136 -143 144 0
133 136 143 -144 0
-140 -145 146 0
-141 -145 146 0
-140 -141 146 0
140 145 -146 0
141 145 -146 0
140 141 -146 0
145 -146 -147 0
140 -146 -147 0
141 -146 -147 0
-145 146 147 0
-140 146 147 0
-141 146 147 0
-140 -141 -145 147 0
140 141 145 -147 0
143 -148 0
146 -148 0
-143 -146 148 0
-143 -146 -149 0
143 146 -149 0
-143 146 149 0
143 -146 149 0
145 -150 0
148 -150 0
-145 -148 150 0
-145 -148 -151 0
145 148 -151 0
-145 148 151 0
145 -148 151 0
129 -152 0
121 -152 0
-121 -129 152 0
-121 -129 -153 0
121 129 -153 0
121 -129 153 0
-121 129 153 0
-124 -137 154 0
-137 -152 154 0
-124 -152 154 0
124 137 -154 0
137 152 -154 0
124 152 -154 0
137 -154 -155 0
124 -154 -155 0
152 -154 -155 0
-137 154 155 0
-124 154 155 0
-152 154 155 0
-124 -137 -152 155 0
124 137 152 -155 0
-128 -144 156 0
-144 -154 156 0
-128 -154 156 0
128 144 -156 0
144 154 -156 0
128 154 -156 0
144 -156 -157 0
128 -156 -157 0
154 -156 -157 0
-144 156 157 0
-128 156 157 0
-154 156 157 0
-128 -144 -154 157 0
128 144 154 -157 0
-132 -147 158 0
-147 -156 158 0
-132 -156 158 0
132 147 -158 0
147 156 -158 0
132 156 -158 0
147 -158 -159 0
132 -158 -159 0
156 -158 -159 0
-147 158 159 0
-132 158 159 0
-156 158 159 0
-132 -147 -156 159 0
132 147 156 -159 0
-136 -149 160 0
-149 -158 160 0
-136 -158 160 0
136 149 -160 0
149 158 -160 0
136 158 -160 0
149 -160 -161 0
136 -160 -161 0
158 -160 -161 0
-149 160 161 0
-136 160 161 0
-158 160 161 0
-136 -149 -158 161 0
136 149 158 -161 0
-140 -151 162 0
-151 -160 162 0
-140 -160 162 0
140 151 -162 0
151 160 -162 0
140 160 -162 0
151 -162 -163 0
140 -162 -163 0
160 -162 -163 0
-151 162 163 0
-140 162 163 0
-160 162 163 0
-140 -151 -160 163 0
140 151 160 -163 0
76 -143 -150 0
76 -150 -162 0
76 -143 -162 0
-76 143 150 0
-76 150 162 0
-76 143 162 0
-76 150 -164 0
-76 143 -164 0
-76 162 -164 0
76 -150 164 0
76 -143 164 0
76 -162 164 0
-143 -150 -162 164 0
143 150 162 -164 0
-66 145 0
-66 76 0
66 -76 -145 0
-37 -76 -145 0
-37 76 145 0
37 76 -145 0
37 -76 145 0
-36 -121 0
-36 -124 0
36 121 124 0
-35 121 124 0
-35 -121 -124 0
35 -121 124 0
35 121 -124 0
-34 36 0
-34 -64 0
34 -36 64 0
-33 -36 64 0
-33 36 -64 0
33 36 64 0
33 -36 -64 0
-32 34 0
-32 -122 0
32 -34 122 0
-31 -34 122 0
-31 34 -122 0
31 34 122 0
31 -34 -122 0
-30 32 0
-30 -153 0
30 -32 153 0
-29 -32 153 0
-29 32 -153 0
29 32 153 0
29 -32 -153 0
-28 30 0
-28 -155 0
28 -30 155 0
-27 -30 155 0
-27 30 -155 0
27 30 155 0
27 -30 -155 0
-26 28 0
-26 -157 0
26 -28 157 0
-25 -28 157 0
-25 28 -157 0
25 28 157 0
25 -28 -157 0
-24 26 0
-24 -159 0
24 -26 159 0
-23 -26 159 0
-23 26 -159 0
23 26 159 0
23 -26 -159 0
-22 24 0
-22 -161 0
22 -24 161 0
-21 -24 161 0
-21 24 -161 0
21 24 161 0
21 -24 -161 0
-20 22 0
-20 -163 0
20 -22 163 0
-19 -22 163 0
-19 22 -163 0
19 22 163 0
19 -22 -163 0
-18 20 0
-18 -164 0
18 -20 164 0
-17 -20 164 0
-17 20 -164 0
17 20 164 0
17 -20 -164 0
-16 18 0
-16 -37 0
16 -18 37 0
-15 -18 37 0
-15 18 -37 0
15 18 37 0
15 -18 -37 0
-14 16 0
-14 -66 0
14 -16 66 0
-13 -16 66 0
-13 16 -66 0
13 16 66 0
13 -16 -66 0
-12 94 0
-12 121 0
12 -94 -121 0
-94 121 0
94 -121 0
11 -96 -124 0
11 -12 -96 0
11 -12 -124 0
-11 96 124 0
-11 12 96 0
-11 12 124 0
11 -96 0
11 -124 0
11 -12 0
-12 -96 -124 0
10 -64 -72 0
10 -11 -72 0
10 -11 -64 0
-10 64 72 0
-10 11 72 0
-10 11 64 0
10 -72 0
10 -64 0
10 -11 0
-11 -64 -72 0
9 -49 -122 0
9 -10 -49 0
9 -10 -122 0
-9 49 122 0
-9 10 49 0
-9 10 122 0
9 -49 0
9 -122 0
9 -10 0
-10 -49 -122 0
8 -47 -153 0
8 -9 -47 0
8 -9 -153 0
-8 47 153 0
-8 9 47 0
-8 9 153 0
8 -47 0
8 -153 0
8 -9 0
-9 -47 -153 0
7 -45 -155 0
7 -8 -45 0
7 -8 -155 0
-7 45 155 0
-7 8 45 0
-7 8 155 0
7 -45 0
7 -155 0
7 -8 0
-8 -45 -155 0
6 -43 -157 0
6 -7 -43 0
6 -7 -157 0
-6 43 157 0
-6 7 43 0
-6 7 157 0
6 -43 0
6 -157 0
6 -7 0
-7 -43 -157 0
5 -41 -159 0
5 -6 -41 0
5 -6 -159 0
-5 41 159 0
-5 6 41 0
-5 6 159 0
5 -41 0
5 -159 0
5 -6 0
-6 -41 -159 0
4 -39 -161 0
4 -5 -39 0
4 -5 -161 0
-4 39 161 0
-4 5 39 0
-4 5 161 0
4 -39 0
4 -161 0
4 -5 0
-5 -39 -161 0
3 -106 -163 0
3 -4 -106 0
3 -4 -163 0
-3 106 163 0
-3 4 106 0
-3 4 163 0
3 -106 0
3 -163 0
3 -4 0
-4 -106 -163 0
2 -108 -164 0
2 -3 -108 0
2 -3 -164 0
-2 108 164 0
-2 3 108 0
-2 3 164 0
2 -108 0
2 -164 0
2 -3 0
-3 -108 -164 0
1 -37 -107 0
1 -2 -107 0
1 -2 -37 0
-1 37 107 0
-1 2 107 0
-1 2 37 0
1 -107 0
1 -37 0
1 -2 0
-2 -37 -107 0
-1 -66 0
1 -66 0
-1 66 0
